NAME          BLANK   
ROWS
 N  OBJROW
 L  R0000000
COLUMNS
    C0000000  OBJROW     -852.         R0000000  368.        
    C0000001  OBJROW     -371.         R0000000  484.        
    C0000002  OBJROW     -536.         R0000000  5.          
    C0000003  OBJROW     -840.         R0000000  821.        
    C0000004  OBJROW     -281.         R0000000  866.        
    C0000005  OBJROW     -154.         R0000000  870.        
    C0000006  OBJROW     -148.         R0000000  47.         
    C0000007  OBJROW     -938.         R0000000  511.        
    C0000008  OBJROW     -641.         R0000000  119.        
    C0000009  OBJROW     -458.         R0000000  19.         
    C0000010  OBJROW     -945.         R0000000  600.        
    C0000011  OBJROW     -733.         R0000000  719.        
RHS
    RHS       R0000000  15098.      
BOUNDS
 BV BOUND     C0000000  1.          
 BV BOUND     C0000001  1.          
 BV BOUND     C0000002  1.          
 BV BOUND     C0000003  1.          
 BV BOUND     C0000004  1.          
 BV BOUND     C0000005  1.          
 BV BOUND     C0000006  1.          
 BV BOUND     C0000007  1.          
 BV BOUND     C0000008  1.          
 BV BOUND     C0000009  1.          
 BV BOUND     C0000010  1.          
 BV BOUND     C0000011  1.          
ENDATA
